p cnf 136 428
c t mc
-2 -3 -4 0
2 3 -4 0
-2 3 4 0
2 -3 4 0
1 4 -5 0
-1 -4 -5 0
1 -4 5 0
-1 4 5 0
7 -6 0
7 -3 0
6 3 -7 0
-9 -7 0
-9 -8 0
7 8 9 0
-10 5 0
-10 9 0
-5 -9 10 0
14 -6 0
14 13 0
6 -13 -14 0
15 2 0
15 -14 0
-2 14 -15 0
12 15 -16 0
-12 -15 -16 0
12 -15 16 0
-12 15 16 0
-17 11 0
-17 16 0
-11 -16 17 0
10 -17 -18 0
-10 17 -18 0
10 17 18 0
-10 -17 18 0
19 -20 0
-19 -20 0
8 1 -21 0
-8 -1 -21 0
8 -1 21 0
-8 1 21 0
-22 -21 0
-22 2 0
21 -2 22 0
21 -22 -23 0
-21 22 -23 0
21 22 23 0
-21 -22 23 0
-20 23 -24 0
20 -23 -24 0
-20 -23 24 0
20 23 24 0
-25 -11 -26 0
25 11 -26 0
-25 11 26 0
25 -11 26 0
28 -29 -30 0
-28 29 -30 0
28 29 30 0
-28 -29 30 0
31 27 0
31 30 0
-27 -30 -31 0
32 -26 0
32 31 0
26 -31 -32 0
-33 24 0
-33 -32 0
-24 32 33 0
34 -18 0
34 33 0
18 -33 -34 0
35 4 0
35 2 0
-4 -2 -35 0
36 34 0
36 -35 0
-34 35 -36 0
-39 -19 0
-39 -38 0
19 38 39 0
-37 39 -40 0
37 -39 -40 0
-37 -39 40 0
37 39 40 0
-42 40 0
-42 -41 0
-40 41 42 0
6 -27 -43 0
-6 27 -43 0
6 27 43 0
-6 -27 43 0
-45 -44 0
-45 27 0
44 -27 45 0
48 46 0
48 47 0
-46 -47 -48 0
49 -45 0
49 -48 0
45 48 -49 0
49 50 -51 0
-49 -50 -51 0
49 -50 51 0
-49 50 51 0
52 51 0
52 30 0
-51 -30 -52 0
53 -48 0
53 -46 0
48 46 -53 0
8 -53 -54 0
-8 53 -54 0
8 53 54 0
-8 -53 54 0
52 54 -55 0
-52 -54 -55 0
52 -54 55 0
-52 54 55 0
57 56 0
57 8 0
-56 -8 -57 0
58 15 0
58 -57 0
-15 57 -58 0
59 12 0
59 -58 0
-12 58 -59 0
55 59 -60 0
-55 -59 -60 0
55 -59 60 0
-55 59 60 0
61 -43 0
61 -60 0
43 60 -61 0
62 27 0
62 14 0
-27 -14 -62 0
57 62 -63 0
-57 -62 -63 0
57 -62 63 0
-57 62 63 0
6 -64 -65 0
-6 64 -65 0
6 64 65 0
-6 -64 65 0
-65 -50 -66 0
65 50 -66 0
-65 50 66 0
65 -50 66 0
-63 66 -67 0
63 -66 -67 0
-63 -66 67 0
63 66 67 0
-68 -61 0
-68 67 0
61 -67 68 0
46 47 -69 0
-46 -47 -69 0
46 -47 69 0
-46 47 69 0
-70 69 0
-70 48 0
-69 -48 70 0
-16 71 -72 0
16 -71 -72 0
-16 -71 72 0
16 71 72 0
-73 70 0
-73 72 0
-70 -72 73 0
-74 30 0
-74 38 0
-30 -38 74 0
-75 -8 0
-75 -74 0
8 74 75 0
-76 -77 -78 0
76 77 -78 0
-76 77 78 0
76 -77 78 0
75 78 -79 0
-75 -78 -79 0
75 -78 79 0
-75 78 79 0
-80 -73 0
-80 79 0
73 -79 80 0
81 68 0
81 -80 0
-68 80 -81 0
84 82 0
84 -83 0
-82 83 -84 0
-86 84 0
-86 -85 0
-84 85 86 0
-87 -83 0
-87 -1 0
83 1 87 0
86 87 -88 0
-86 -87 -88 0
86 -87 88 0
-86 87 88 0
-45 -1 -89 0
45 1 -89 0
-45 1 89 0
45 -1 89 0
-90 88 0
-90 89 0
-88 -89 90 0
91 -30 0
91 27 0
30 -27 -91 0
92 -90 0
92 91 0
90 -91 -92 0
81 -92 -93 0
-81 92 -93 0
81 92 93 0
-81 -92 93 0
-94 -46 0
-94 -57 0
46 57 94 0
-95 28 0
-95 -47 0
-28 47 95 0
96 95 0
96 -20 0
-95 20 -96 0
-97 -96 0
-97 -49 0
96 49 97 0
-99 -77 0
-99 69 0
77 -69 99 0
98 -99 -100 0
-98 99 -100 0
98 99 100 0
-98 -99 100 0
-101 -97 0
-101 100 0
97 -100 101 0
-102 -83 -103 0
102 83 -103 0
-102 83 103 0
102 -83 103 0
-101 103 -104 0
101 -103 -104 0
-101 -103 104 0
101 103 104 0
105 -94 0
105 104 0
94 -104 -105 0
106 96 0
106 -74 0
-96 74 -106 0
-106 16 -107 0
106 -16 -107 0
-106 -16 107 0
106 16 107 0
-108 -7 0
-108 -83 0
7 83 108 0
-109 107 0
-109 -108 0
-107 108 109 0
-110 -105 0
-110 -109 0
105 109 110 0
111 -93 0
111 -110 0
93 110 -111 0
112 42 0
112 -111 0
-42 111 -112 0
50 -7 -113 0
-50 7 -113 0
50 7 113 0
-50 -7 113 0
-113 -15 -114 0
113 15 -114 0
-113 15 114 0
113 -15 114 0
-115 -114 0
-115 65 0
114 -65 115 0
38 -6 -116 0
-38 6 -116 0
38 6 116 0
-38 -6 116 0
53 -49 -117 0
-53 49 -117 0
53 49 117 0
-53 -49 117 0
-116 -117 -118 0
116 117 -118 0
-116 117 118 0
116 -117 118 0
115 -118 -119 0
-115 118 -119 0
115 118 119 0
-115 -118 119 0
-120 -7 -121 0
120 7 -121 0
-120 7 121 0
120 -7 121 0
119 -121 -122 0
-119 121 -122 0
119 121 122 0
-119 -121 122 0
-123 -95 0
-123 1 0
95 -1 123 0
-124 -27 0
-124 82 0
27 -82 124 0
124 -85 -125 0
-124 85 -125 0
124 85 125 0
-124 -85 125 0
126 -123 0
126 -125 0
123 125 -126 0
-95 -113 -127 0
95 113 -127 0
-95 113 127 0
95 -113 127 0
-128 -49 0
-128 127 0
49 -127 128 0
129 -128 0
129 56 0
128 -56 -129 0
130 51 0
130 3 0
-51 -3 -130 0
95 -130 -131 0
-95 130 -131 0
95 130 131 0
-95 -130 131 0
132 129 0
132 131 0
-129 -131 -132 0
126 -132 -133 0
-126 132 -133 0
126 132 133 0
-126 -132 133 0
134 -122 0
134 133 0
122 -133 -134 0
135 112 0
135 134 0
-112 -134 -135 0
136 36 0
136 -135 0
-36 135 -136 0
122 -91 125 31 0
43 -79 49 0
-123 131 133 -22 0
-55 -98 -3 0
63 -93 48 136 -71 49 0
38 -24 -32 -64 0
59 -57 96 -87 -58 0
114 10 -72 38 -107 -25 -59 34 104 109 0
-89 -130 -64 0
-76 123 21 -37 28 -98 0
76 21 -89 -57 124 -12 127 -72 105 0
-49 42 -51 -116 39 0
-33 -115 130 -12 61 -87 -15 111 65 -127 0
77 -14 92 0
50 77 -29 -67 49 -61 60 -14 -63 0
43 -132 -85 -80 103 -116 -130 0
-52 67 82 95 0
107 61 -15 48 0
-95 -89 56 1 93 -18 2 -115 -109 0
130 -122 -96 -29 6 117 80 -112 0
-75 -16 -123 99 106 0
-38 60 -72 0
27 -76 108 -24 32 30 -9 -48 -129 136 0
7 -69 -102 24 43 -92 -131 40 0
-53 -43 -54 0
-108 47 94 20 46 42 49 50 0
-24 -68 -55 0
-27 -70 -108 -94 60 80 50 57 0
-2 72 131 23 -130 109 -20 60 -124 0
-3 -129 -94 -100 -17 76 -9 136 0
-33 3 -54 -70 -71 -82 38 0
93 5 103 -37 99 -106 0
-81 77 105 -22 0
-119 129 56 -32 117 113 42 105 0
32 -24 -122 -44 76 -42 -45 -97 0
116 -67 98 -119 0
-33 35 112 75 -136 0
-93 -124 -30 0
-6 66 91 103 -51 44 10 62 56 0
28 2 -108 130 -82 -25 -52 0
95 -53 38 -7 -6 -90 36 98 -81 0
7 33 -20 109 -3 0
-126 40 90 -111 84 -123 -20 0
135 9 71 -5 -14 96 -134 88 0
-3 -25 15 0
27 9 30 11 -77 0
42 13 24 34 0
-110 -72 -24 88 -28 12 14 118 70 0
-129 136 29 -33 -31 -7 -61 0
105 62 73 -8 12 -125 0
-5 -50 -43 22 130 -46 0
-27 92 -51 0
89 -94 135 116 -45 -115 49 85 -95 0
-134 132 25 -125 -22 93 0
-93 61 -75 -60 31 0
62 -75 10 6 5 134 70 82 0
-23 -15 86 -95 -72 75 -77 34 61 41 0
-128 -92 -61 -87 -17 -59 -39 -36 96 16 0
123 -84 97 91 11 89 -130 70 110 0
-61 -123 104 69 133 96 106 -85 0
-115 -41 -110 -57 29 36 30 118 40 49 0
-7 15 75 -122 0
37 -9 -107 18 -101 -123 83 0
38 69 34 0
39 -51 133 109 3 97 -103 0
-125 -107 16 129 -33 -114 0
-27 -8 61 -45 28 -62 0
-30 -36 -55 -14 -71 -125 0
-126 -75 20 94 12 109 60 -84 90 0
-91 -113 45 -134 -61 -54 6 122 0
-69 53 103 83 89 0
136 0
